ID_groupA
90331
90331
90331
59549
90331
90331
59549
90331
90331
90331
90331
90331
90331
90331
90331
90331
90331
90331
90331
90331
90331
90331
90331
49668
90331
90331
90331
90331
90331
90331
90331
90331
16437
90331
90331
49668
90331
90331
90331
59549
90331
90331
59549
90331
90331
90331
90331
90331
90331
90331
59549
59549
59549
59549
59549
90331
90331
90331
59549
59549
33732
59549
90331
90331
90331
90331
90331
59549
33732
59549
90331
90331
90331
90331
90331
90331
33732
59549
59549
90331
90331
90331
59549
90331
16437
90331
49668
90331
90331
90331
90331
90331
90331
90331
90331
90331
90331
90331
90331
49668
90331
49668
90331
90331
90331
